10 10 4

0 244 213 272 488 345 336 300 112 355 
109 0 96 167 361 467 175 216 331 172 
324 385 0 283 216 475 164 120 329 383 
229 269 167 0 209 463 330 431 207 381 
473 213 443 328 0 272 245 201 133 212 
83 299 249 205 329 0 133 438 496 314 
309 322 350 191 50 118 0 64 417 80 
100 347 237 432 76 401 130 0 110 379 
82 468 462 451 50 468 199 205 0 52 
489 350 254 302 158 75 358 299 283 0 

220.75 0 7
220.75 1 7
220.75 2 0
220.75 3 5
220.75 4 6
220.75 5 8
220.75 6 0
220.75 7 8
220.75 8 7
220.75 9 7

